(declare-const x0 Bool)
(declare-const x1 Bool)
(declare-const x2 Bool)
(declare-const x3 Bool)
(declare-const x4 Bool)
(declare-const x5 Bool)
(declare-const x6 Bool)
(declare-const x7 Bool)
(declare-const x8 Bool)
(declare-const x9 Bool)
(declare-const x10 Bool)
(declare-const x11 Bool)
(declare-const x12 Bool)
(declare-const x13 Bool)
(declare-const x14 Bool)
(declare-const x15 Bool)
(declare-const y0 Real)
(declare-const y1 Real)
(declare-const y2 Real)
(declare-const y3 Real)
(declare-const y4 Real)
(declare-const y5 Real)
(declare-const y6 Real)
(declare-const y7 Real)
(declare-const y8 Real)
(declare-const y9 Real)
(declare-const y10 Real)
(declare-const y11 Real)
(declare-const y12 Real)
(declare-const y13 Real)
(declare-const y14 Real)
(declare-const y15 Real)
(declare-const y16 Real)
(declare-const y17 Real)
(declare-const y18 Real)
(declare-const y19 Real)
(declare-const y20 Real)
(declare-const y21 Real)
(declare-const y22 Real)
(declare-const y23 Real)
(declare-const y24 Real)
(declare-const y25 Real)
(declare-const y26 Real)
(declare-const y27 Real)
(declare-const y28 Real)
(declare-const y29 Real)
(declare-const y30 Real)
(declare-const y31 Real)
(declare-const y32 Real)
(declare-const y33 Real)
(declare-const y34 Real)
(declare-const y35 Real)
(declare-const y36 Real)
(declare-const y37 Real)
(declare-const y38 Real)
(declare-const y39 Real)
(assert (and x2 (< (+ 47 (+ 2 82)) (+ 95 y18))))
(assert (and (or (= 34 87) (< (+ y21 43) (+ (+ y28 (+ y26 30)) (+ y11 18)))) (and (and (and (or true x10) (or false x10)) (= 62 y36)) (< 12 y19))))
(assert (= y25 y26))
(assert (and (< y26 y34) (< 44 y16)))
(assert (or (= x0 true) (and x4 x7)))
(assert (or (= y12 y34) (< y26 y30)))
(assert (or (= x15 (or false true)) (and x7 x14)))
(assert (= false (and x12 false)))
(assert (or (or false true) (= (+ 3 (+ 61 25)) 71)))
(assert (< 64 y10))
(check-sat)
